\ENCODING=ISO-8859-1
\Problem name: ilog.cplex

Maximize
 obj: R10 + R9 + R8 + R7 + R6 + R5 + R4 + R3 + R2 + R1
Subject To
 _Eq1#0:               - I0 + y0,11 + y0,10 + y0,9 + y0,8 + y0,7 + y0,6 + y0,5
                       + y0,4 + y0,3 + y0,2 + y0,1  = 0
 _Eq1#1:               - I1 + y1,11 + y1,10 + y1,9 + y1,8 + y1,7 + y1,6 + y1,5
                       + y1,4 + y1,3 + y1,2  = 0
 _Eq1#2:               - I2 + y2,11 + y2,10 + y2,9 + y2,8 + y2,7 + y2,6 + y2,5
                       + y2,4 + y2,3 + y2,1  = 0
 _Eq1#3:               - I3 + y3,11 + y3,10 + y3,9 + y3,8 + y3,7 + y3,6 + y3,5
                       + y3,4 + y3,2 + y3,1  = 0
 _Eq1#4:               - I4 + y4,11 + y4,10 + y4,9 + y4,8 + y4,7 + y4,6 + y4,5
                       + y4,3 + y4,2 + y4,1  = 0
 _Eq1#5:               - I5 + y5,11 + y5,10 + y5,9 + y5,8 + y5,7 + y5,6 + y5,4
                       + y5,3 + y5,2 + y5,1  = 0
 _Eq1#6:               - I6 + y6,11 + y6,10 + y6,9 + y6,8 + y6,7 + y6,5 + y6,4
                       + y6,3 + y6,2 + y6,1  = 0
 _Eq1#7:               - I7 + y7,11 + y7,10 + y7,9 + y7,8 + y7,6 + y7,5 + y7,4
                       + y7,3 + y7,2 + y7,1  = 0
 _Eq1#8:               - I8 + y8,11 + y8,10 + y8,9 + y8,7 + y8,6 + y8,5 + y8,4
                       + y8,3 + y8,2 + y8,1  = 0
 _Eq1#9:               - I9 + y9,11 + y9,10 + y9,8 + y9,7 + y9,6 + y9,5 + y9,4
                       + y9,3 + y9,2 + y9,1  = 0
 _Eq1#10:              - I10 + y10,11 + y10,9 + y10,8 + y10,7 + y10,6 + y10,5
                       + y10,4 + y10,3 + y10,2 + y10,1  = 0
 _Eq2#11:              y0,1 - I1 + y2,1 + y3,1 + y4,1 + y5,1 + y6,1 + y7,1
                       + y8,1 + y9,1 + y10,1  = 0
 _Eq2#12:              y0,2 + y1,2 - I2 + y3,2 + y4,2 + y5,2 + y6,2 + y7,2
                       + y8,2 + y9,2 + y10,2  = 0
 _Eq2#13:              y0,3 + y1,3 + y2,3 - I3 + y4,3 + y5,3 + y6,3 + y7,3
                       + y8,3 + y9,3 + y10,3  = 0
 _Eq2#14:              y0,4 + y1,4 + y2,4 + y3,4 - I4 + y5,4 + y6,4 + y7,4
                       + y8,4 + y9,4 + y10,4  = 0
 _Eq2#15:              y0,5 + y1,5 + y2,5 + y3,5 + y4,5 - I5 + y6,5 + y7,5
                       + y8,5 + y9,5 + y10,5  = 0
 _Eq2#16:              y0,6 + y1,6 + y2,6 + y3,6 + y4,6 + y5,6 - I6 + y7,6
                       + y8,6 + y9,6 + y10,6  = 0
 _Eq2#17:              y0,7 + y1,7 + y2,7 + y3,7 + y4,7 + y5,7 + y6,7 - I7
                       + y8,7 + y9,7 + y10,7  = 0
 _Eq2#18:              y0,8 + y1,8 + y2,8 + y3,8 + y4,8 + y5,8 + y6,8 + y7,8
                       - I8 + y9,8 + y10,8  = 0
 _Eq2#19:              y0,9 + y1,9 + y2,9 + y3,9 + y4,9 + y5,9 + y6,9 + y7,9
                       + y8,9 - I9 + y10,9  = 0
 _Eq2#20:              y0,10 + y1,10 + y2,10 + y3,10 + y4,10 + y5,10 + y6,10
                       + y7,10 + y8,10 + y9,10 - I10  = 0
 _Eq2#21:              y0,11 + y1,11 + y2,11 + y3,11 + y4,11 + y5,11 + y6,11
                       + y7,11 + y8,11 + y9,11 + y10,11 - I11  = 0
 _Eq3#22:              24 y0,1 - C1 + C0 <= 0
 _Eq3#23:              29 y0,2 + C0 - C2 <= 0
 _Eq3#24:              16 y0,3 + C0 - C3 <= 0
 _Eq3#25:              6 y0,4 + C0 - C4 <= 0
 _Eq3#26:              17 y0,5 + C0 - C5 <= 0
 _Eq3#27:              15 y0,6 + C0 - C6 <= 0
 _Eq3#28:              20 y0,7 + C0 - C7 <= 0
 _Eq3#29:              6 y0,8 + C0 - C8 <= 0
 _Eq3#30:              12 y0,9 + C0 - C9 <= 0
 _Eq3#31:              10 y0,10 + C0 - C10 <= 0
 _Eq3#32:              C0 - C11 <= 0
 _Eq3#33:              140 y1,2 + C1 - C2 <= 111
 _Eq3#34:              133 y1,3 + C1 - C3 <= 111
 _Eq3#35:              121 y1,4 + C1 - C4 <= 111
 _Eq3#36:              127 y1,5 + C1 - C5 <= 111
 _Eq3#37:              130 y1,6 + C1 - C6 <= 111
 _Eq3#38:              126 y1,7 + C1 - C7 <= 111
 _Eq3#39:              119 y1,8 + C1 - C8 <= 111
 _Eq3#40:              124 y1,9 + C1 - C9 <= 111
 _Eq3#41:              116 y1,10 + C1 - C10 <= 111
 _Eq3#42:              111 y1,11 + C1 - C11 <= 111
 _Eq3#43:              136 y2,1 - C1 + C2 <= 117
 _Eq3#44:              136 y2,3 + C2 - C3 <= 117
 _Eq3#45:              130 y2,4 + C2 - C4 <= 117
 _Eq3#46:              137 y2,5 + C2 - C5 <= 117
 _Eq3#47:              136 y2,6 + C2 - C6 <= 117
 _Eq3#48:              134 y2,7 + C2 - C7 <= 117
 _Eq3#49:              129 y2,8 + C2 - C8 <= 117
 _Eq3#50:              125 y2,9 + C2 - C9 <= 117
 _Eq3#51:              129 y2,10 + C2 - C10 <= 117
 _Eq3#52:              117 y2,11 + C2 - C11 <= 117
 _Eq3#53:              134 y3,1 - C1 + C3 <= 108
 _Eq3#54:              129 y3,2 - C2 + C3 <= 108
 _Eq3#55:              119 y3,4 + C3 - C4 <= 108
 _Eq3#56:              127 y3,5 + C3 - C5 <= 108
 _Eq3#57:              125 y3,6 + C3 - C6 <= 108
 _Eq3#58:              124 y3,7 + C3 - C7 <= 108
 _Eq3#59:              119 y3,8 + C3 - C8 <= 108
 _Eq3#60:              121 y3,9 + C3 - C9 <= 108
 _Eq3#61:              114 y3,10 + C3 - C10 <= 108
 _Eq3#62:              108 y3,11 + C3 - C11 <= 108
 _Eq3#63:              132 y4,1 - C1 + C4 <= 105
 _Eq3#64:              126 y4,2 - C2 + C4 <= 105
 _Eq3#65:              120 y4,3 - C3 + C4 <= 105
 _Eq3#66:              128 y4,5 + C4 - C5 <= 105
 _Eq3#67:              124 y4,6 + C4 - C6 <= 105
 _Eq3#68:              122 y4,7 + C4 - C7 <= 105
 _Eq3#69:              117 y4,8 + C4 - C8 <= 105
 _Eq3#70:              116 y4,9 + C4 - C9 <= 105
 _Eq3#71:              114 y4,10 + C4 - C10 <= 105
 _Eq3#72:              105 y4,11 + C4 - C11 <= 105
 _Eq3#73:              132 y5,1 - C1 + C5 <= 109
 _Eq3#74:              134 y5,2 - C2 + C5 <= 109
 _Eq3#75:              130 y5,3 - C3 + C5 <= 109
 _Eq3#76:              119 y5,4 - C4 + C5 <= 109
 _Eq3#77:              126 y5,6 + C5 - C6 <= 109
 _Eq3#78:              128 y5,7 + C5 - C7 <= 109
 _Eq3#79:              120 y5,8 + C5 - C8 <= 109
 _Eq3#80:              125 y5,9 + C5 - C9 <= 109
 _Eq3#81:              121 y5,10 + C5 - C10 <= 109
 _Eq3#82:              109 y5,11 + C5 - C11 <= 109
 _Eq3#83:              137 y6,1 - C1 + C6 <= 111
 _Eq3#84:              136 y6,2 - C2 + C6 <= 111
 _Eq3#85:              129 y6,3 - C3 + C6 <= 111
 _Eq3#86:              121 y6,4 - C4 + C6 <= 111
 _Eq3#87:              126 y6,5 - C5 + C6 <= 111
 _Eq3#88:              130 y6,7 + C6 - C7 <= 111
 _Eq3#89:              115 y6,8 + C6 - C8 <= 111
 _Eq3#90:              124 y6,9 + C6 - C9 <= 111
 _Eq3#91:              124 y6,10 + C6 - C10 <= 111
 _Eq3#92:              111 y6,11 + C6 - C11 <= 111
 _Eq3#93:              123 y7,1 - C1 + C7 <= 103
 _Eq3#94:              126 y7,2 - C2 + C7 <= 103
 _Eq3#95:              125 y7,3 - C3 + C7 <= 103
 _Eq3#96:              109 y7,4 - C4 + C7 <= 103
 _Eq3#97:              125 y7,5 - C5 + C7 <= 103
 _Eq3#98:              122 y7,6 - C6 + C7 <= 103
 _Eq3#99:              114 y7,8 + C7 - C8 <= 103
 _Eq3#100:             112 y7,9 + C7 - C9 <= 103
 _Eq3#101:             110 y7,10 + C7 - C10 <= 103
 _Eq3#102:             103 y7,11 + C7 - C11 <= 103
 _Eq3#103:             131 y8,1 - C1 + C8 <= 107
 _Eq3#104:             131 y8,2 - C2 + C8 <= 107
 _Eq3#105:             128 y8,3 - C3 + C8 <= 107
 _Eq3#106:             117 y8,4 - C4 + C8 <= 107
 _Eq3#107:             124 y8,5 - C5 + C8 <= 107
 _Eq3#108:             122 y8,6 - C6 + C8 <= 107
 _Eq3#109:             122 y8,7 - C7 + C8 <= 107
 _Eq3#110:             119 y8,9 + C8 - C9 <= 107
 _Eq3#111:             114 y8,10 + C8 - C10 <= 107
 _Eq3#112:             107 y8,11 + C8 - C11 <= 107
 _Eq3#113:             127 y9,1 - C1 + C9 <= 104
 _Eq3#114:             125 y9,2 - C2 + C9 <= 104
 _Eq3#115:             120 y9,3 - C3 + C9 <= 104
 _Eq3#116:             118 y9,4 - C4 + C9 <= 104
 _Eq3#117:             119 y9,5 - C5 + C9 <= 104
 _Eq3#118:             125 y9,6 - C6 + C9 <= 104
 _Eq3#119:             119 y9,7 - C7 + C9 <= 104
 _Eq3#120:             116 y9,8 - C8 + C9 <= 104
 _Eq3#121:             114 y9,10 + C9 - C10 <= 104
 _Eq3#122:             104 y9,11 + C9 - C11 <= 104
 _Eq3#123:             135 y10,1 - C1 + C10 <= 109
 _Eq3#124:             135 y10,2 - C2 + C10 <= 109
 _Eq3#125:             125 y10,3 - C3 + C10 <= 109
 _Eq3#126:             117 y10,4 - C4 + C10 <= 109
 _Eq3#127:             129 y10,5 - C5 + C10 <= 109
 _Eq3#128:             128 y10,6 - C6 + C10 <= 109
 _Eq3#129:             123 y10,7 - C7 + C10 <= 109
 _Eq3#130:             114 y10,8 - C8 + C10 <= 109
 _Eq3#131:             117 y10,9 - C9 + C10 <= 109
 _Eq3#132:             109 y10,11 + C10 - C11 <= 109
 _Eq4#133:             7 y0,1 + 27 I1 - C1 <= 0
 _Eq4#134:             10 y0,2 + 29 I2 - C2 <= 0
 _Eq4#135:             3 y0,3 + 15 I3 - C3 <= 0
 _Eq4#136:             2 y0,4 + 8 I4 - C4 <= 0
 _Eq4#137:             4 y0,5 + 19 I5 - C5 <= 0
 _Eq4#138:             3 y0,6 + 16 I6 - C6 <= 0
 _Eq4#139:             8 y0,7 + 17 I7 - C7 <= 0
 _Eq4#140:             4 y0,8 + 9 I8 - C8 <= 0
 _Eq4#141:             6 y0,9 + 9 I9 - C9 <= 0
 _Eq4#142:             7 y0,10 + 8 I10 - C10 <= 0
 _Eq4#143:             - C11 <= 0
 _Eq4#144:             10 y1,2 + 29 I2 - C2 <= 0
 _Eq4#145:             9 y1,3 + 15 I3 - C3 <= 0
 _Eq4#146:             6 y1,4 + 8 I4 - C4 <= 0
 _Eq4#147:             3 y1,5 + 19 I5 - C5 <= 0
 _Eq4#148:             7 y1,6 + 16 I6 - C6 <= 0
 _Eq4#149:             3 y1,7 + 17 I7 - C7 <= 0
 _Eq4#150:             6 y1,8 + 9 I8 - C8 <= 0
 _Eq4#151:             7 y1,9 + 9 I9 - C9 <= 0
 _Eq4#152:             2 y1,10 + 8 I10 - C10 <= 0
 _Eq4#153:             - C11 <= 0
 _Eq4#154:             27 I1 + 2 y2,1 - C1 <= 0
 _Eq4#155:             6 y2,3 + 15 I3 - C3 <= 0
 _Eq4#156:             9 y2,4 + 8 I4 - C4 <= 0
 _Eq4#157:             7 y2,5 + 19 I5 - C5 <= 0
 _Eq4#158:             7 y2,6 + 16 I6 - C6 <= 0
 _Eq4#159:             5 y2,7 + 17 I7 - C7 <= 0
 _Eq4#160:             10 y2,8 + 9 I8 - C8 <= 0
 _Eq4#161:             2 y2,9 + 9 I9 - C9 <= 0
 _Eq4#162:             9 y2,10 + 8 I10 - C10 <= 0
 _Eq4#163:             - C11 <= 0
 _Eq4#164:             27 I1 + 9 y3,1 - C1 <= 0
 _Eq4#165:             29 I2 + 2 y3,2 - C2 <= 0
 _Eq4#166:             7 y3,4 + 8 I4 - C4 <= 0
 _Eq4#167:             6 y3,5 + 19 I5 - C5 <= 0
 _Eq4#168:             5 y3,6 + 16 I6 - C6 <= 0
 _Eq4#169:             4 y3,7 + 17 I7 - C7 <= 0
 _Eq4#170:             9 y3,8 + 9 I8 - C8 <= 0
 _Eq4#171:             7 y3,9 + 9 I9 - C9 <= 0
 _Eq4#172:             3 y3,10 + 8 I10 - C10 <= 0
 _Eq4#173:             - C11 <= 0
 _Eq4#174:             27 I1 + 10 y4,1 - C1 <= 0
 _Eq4#175:             29 I2 + 2 y4,2 - C2 <= 0
 _Eq4#176:             15 I3 + 2 y4,3 - C3 <= 0
 _Eq4#177:             10 y4,5 + 19 I5 - C5 <= 0
 _Eq4#178:             7 y4,6 + 16 I6 - C6 <= 0
 _Eq4#179:             5 y4,7 + 17 I7 - C7 <= 0
 _Eq4#180:             10 y4,8 + 9 I8 - C8 <= 0
 _Eq4#181:             5 y4,9 + 9 I9 - C9 <= 0
 _Eq4#182:             6 y4,10 + 8 I10 - C10 <= 0
 _Eq4#183:             - C11 <= 0
 _Eq4#184:             27 I1 + 6 y5,1 - C1 <= 0
 _Eq4#185:             29 I2 + 6 y5,2 - C2 <= 0
 _Eq4#186:             15 I3 + 8 y5,3 - C3 <= 0
 _Eq4#187:             8 I4 + 6 y5,4 - C4 <= 0
 _Eq4#188:             5 y5,6 + 16 I6 - C6 <= 0
 _Eq4#189:             7 y5,7 + 17 I7 - C7 <= 0
 _Eq4#190:             9 y5,8 + 9 I8 - C8 <= 0
 _Eq4#191:             10 y5,9 + 9 I9 - C9 <= 0
 _Eq4#192:             9 y5,10 + 8 I10 - C10 <= 0
 _Eq4#193:             - C11 <= 0
 _Eq4#194:             27 I1 + 9 y6,1 - C1 <= 0
 _Eq4#195:             29 I2 + 6 y6,2 - C2 <= 0
 _Eq4#196:             15 I3 + 5 y6,3 - C3 <= 0
 _Eq4#197:             8 I4 + 6 y6,4 - C4 <= 0
 _Eq4#198:             19 I5 + 2 y6,5 - C5 <= 0
 _Eq4#199:             7 y6,7 + 17 I7 - C7 <= 0
 _Eq4#200:             2 y6,8 + 9 I8 - C8 <= 0
 _Eq4#201:             7 y6,9 + 9 I9 - C9 <= 0
 _Eq4#202:             10 y6,10 + 8 I10 - C10 <= 0
 _Eq4#203:             - C11 <= 0
 _Eq4#204:             27 I1 + 3 y7,1 - C1 <= 0
 _Eq4#205:             29 I2 + 4 y7,2 - C2 <= 0
 _Eq4#206:             15 I3 + 9 y7,3 - C3 <= 0
 _Eq4#207:             8 I4 + 2 y7,4 - C4 <= 0
 _Eq4#208:             19 I5 + 9 y7,5 - C5 <= 0
 _Eq4#209:             16 I6 + 7 y7,6 - C6 <= 0
 _Eq4#210:             9 y7,8 + 9 I8 - C8 <= 0
 _Eq4#211:             3 y7,9 + 9 I9 - C9 <= 0
 _Eq4#212:             4 y7,10 + 8 I10 - C10 <= 0
 _Eq4#213:             - C11 <= 0
 _Eq4#214:             27 I1 + 7 y8,1 - C1 <= 0
 _Eq4#215:             29 I2 + 5 y8,2 - C2 <= 0
 _Eq4#216:             15 I3 + 8 y8,3 - C3 <= 0
 _Eq4#217:             8 I4 + 6 y8,4 - C4 <= 0
 _Eq4#218:             19 I5 + 4 y8,5 - C5 <= 0
 _Eq4#219:             16 I6 + 3 y8,6 - C6 <= 0
 _Eq4#220:             17 I7 + 3 y8,7 - C7 <= 0
 _Eq4#221:             6 y8,9 + 9 I9 - C9 <= 0
 _Eq4#222:             4 y8,10 + 8 I10 - C10 <= 0
 _Eq4#223:             - C11 <= 0
 _Eq4#224:             27 I1 + 6 y9,1 - C1 <= 0
 _Eq4#225:             29 I2 + 2 y9,2 - C2 <= 0
 _Eq4#226:             15 I3 + 3 y9,3 - C3 <= 0
 _Eq4#227:             8 I4 + 10 y9,4 - C4 <= 0
 _Eq4#228:             19 I5 + 2 y9,5 - C5 <= 0
 _Eq4#229:             16 I6 + 9 y9,6 - C6 <= 0
 _Eq4#230:             17 I7 + 3 y9,7 - C7 <= 0
 _Eq4#231:             9 I8 + 10 y9,8 - C8 <= 0
 _Eq4#232:             7 y9,10 + 8 I10 - C10 <= 0
 _Eq4#233:             - C11 <= 0
 _Eq4#234:             27 I1 + 9 y10,1 - C1 <= 0
 _Eq4#235:             29 I2 + 7 y10,2 - C2 <= 0
 _Eq4#236:             15 I3 + 3 y10,3 - C3 <= 0
 _Eq4#237:             8 I4 + 4 y10,4 - C4 <= 0
 _Eq4#238:             19 I5 + 7 y10,5 - C5 <= 0
 _Eq4#239:             16 I6 + 7 y10,6 - C6 <= 0
 _Eq4#240:             17 I7 + 2 y10,7 - C7 <= 0
 _Eq4#241:             9 I8 + 3 y10,8 - C8 <= 0
 _Eq4#242:             9 I9 + 2 y10,9 - C9 <= 0
 _Eq4#243:             - C11 <= 0
 _Eq5#244:             C0 <= 0
 _Eq5#245:             - 111 I1 + C1 <= 0
 _Eq5#246:             - 117 I2 + C2 <= 0
 _Eq5#247:             - 108 I3 + C3 <= 0
 _Eq5#248:             - 105 I4 + C4 <= 0
 _Eq5#249:             - 109 I5 + C5 <= 0
 _Eq5#250:             - 111 I6 + C6 <= 0
 _Eq5#251:             - 103 I7 + C7 <= 0
 _Eq5#252:             - 107 I8 + C8 <= 0
 _Eq5#253:             - 104 I9 + C9 <= 0
 _Eq5#254:             - 109 I10 + C10 <= 0
 _Eq5#255:             C11 <= 0
 _Eq6#256:             - C0 + T0 >= 0
 _Eq6#257:             - C1 + T1 >= -109
 _Eq6#258:             - C2 + T2 >= -115
 _Eq6#259:             - C3 + T3 >= -106
 _Eq6#260:             - C4 + T4 >= -104
 _Eq6#261:             - C5 + T5 >= -107
 _Eq6#262:             - C6 + T6 >= -109
 _Eq6#263:             - C7 + T7 >= -101
 _Eq6#264:             - C8 + T8 >= -106
 _Eq6#265:             - C9 + T9 >= -103
 _Eq6#266:             - C10 + T10 >= -108
 _Eq6#267:             - C11 + T11 >= 0
 _Eq7#268:             T0 <= 0
 _Eq7#269:             - 2 I1 + T1 <= 0
 _Eq7#270:             - 2 I2 + T2 <= 0
 _Eq7#271:             - 2 I3 + T3 <= 0
 _Eq7#272:             - I4 + T4 <= 0
 _Eq7#273:             - 2 I5 + T5 <= 0
 _Eq7#274:             - 2 I6 + T6 <= 0
 _Eq7#275:             - 2 I7 + T7 <= 0
 _Eq7#276:             - I8 + T8 <= 0
 _Eq7#277:             - I9 + T9 <= 0
 _Eq7#278:             - I10 + T10 <= 0
 _Eq7#279:             T11 <= 0
 _Eq8#280:             T0 >= 0
 _Eq8#281:             T1 >= 0
 _Eq8#282:             T2 >= 0
 _Eq8#283:             T3 >= 0
 _Eq8#284:             T4 >= 0
 _Eq8#285:             T5 >= 0
 _Eq8#286:             T6 >= 0
 _Eq8#287:             T7 >= 0
 _Eq8#288:             T8 >= 0
 _Eq8#289:             T9 >= 0
 _Eq8#290:             T10 >= 0
 _Eq8#291:             T11 >= 0
 _Eq9#292:             R1 - 5 I1 + 2.5 T1 <= 0
 _Eq9#293:             R2 - 19 I2 + 9.5 T2 <= 0
 _Eq9#294:             R3 - 16 I3 + 8 T3 <= 0
 _Eq9#295:             R4 - 10 I4 + 10 T4 <= 0
 _Eq9#296:             R5 - 12 I5 + 6 T5 <= 0
 _Eq9#297:             R6 - 19 I6 + 9.5 T6 <= 0
 _Eq9#298:             R7 - 3 I7 + 1.5 T7 <= 0
 _Eq9#299:             R8 - 16 I8 + 16 T8 <= 0
 _Eq9#300:             R9 - 19 I9 + 19 T9 <= 0
 _Eq9#301:             R10 - 5 I10 + 5 T10 <= 0
 _Eq10#302:            R1 >= 0
 _Eq10#303:            R2 >= 0
 _Eq10#304:            R3 >= 0
 _Eq10#305:            R4 >= 0
 _Eq10#306:            R5 >= 0
 _Eq10#307:            R6 >= 0
 _Eq10#308:            R7 >= 0
 _Eq10#309:            R8 >= 0
 _Eq10#310:            R9 >= 0
 _Eq10#311:            R10 >= 0
 _Eq11m1#312:          C0  = 0
 _Eq11m2_and_Eq16#313: C11  = 117
 _Eq12m1#314:          I0  = 1
 _Eq12m2#315:          I11  = 1
 _Eq17#316:            - 17 I1 - 2 y1,10 - 7 y1,9 - 6 y1,8 - 3 y1,7 - 7 y1,6
                       - 3 y1,5 - 6 y1,4 - 9 y1,3 - 10 y1,2 - 19 I2 - 9 y2,10
                       - 2 y2,9 - 10 y2,8 - 5 y2,7 - 7 y2,6 - 7 y2,5 - 9 y2,4
                       - 6 y2,3 - 2 y2,1 - 13 I3 - 3 y3,10 - 7 y3,9 - 9 y3,8
                       - 4 y3,7 - 5 y3,6 - 6 y3,5 - 7 y3,4 - 2 y3,2 - 9 y3,1
                       - 4 I4 - 6 y4,10 - 5 y4,9 - 10 y4,8 - 5 y4,7 - 7 y4,6
                       - 10 y4,5 - 2 y4,3 - 2 y4,2 - 10 y4,1 - 13 I5 - 9 y5,10
                       - 10 y5,9 - 9 y5,8 - 7 y5,7 - 5 y5,6 - 6 y5,4 - 8 y5,3
                       - 6 y5,2 - 6 y5,1 - 12 I6 - 10 y6,10 - 7 y6,9 - 2 y6,8
                       - 7 y6,7 - 2 y6,5 - 6 y6,4 - 5 y6,3 - 6 y6,2 - 9 y6,1
                       - 12 I7 - 4 y7,10 - 3 y7,9 - 9 y7,8 - 7 y7,6 - 9 y7,5
                       - 2 y7,4 - 9 y7,3 - 4 y7,2 - 3 y7,1 - 2 I8 - 4 y8,10
                       - 6 y8,9 - 3 y8,7 - 3 y8,6 - 4 y8,5 - 6 y8,4 - 8 y8,3
                       - 5 y8,2 - 7 y8,1 - 6 I9 - 7 y9,10 - 10 y9,8 - 3 y9,7
                       - 9 y9,6 - 2 y9,5 - 10 y9,4 - 3 y9,3 - 2 y9,2 - 6 y9,1
                       - 3 I10 - 2 y10,9 - 3 y10,8 - 2 y10,7 - 7 y10,6
                       - 7 y10,5 - 4 y10,4 - 3 y10,3 - 7 y10,2 - 9 y10,1 + C11
                       >= 2
 _Eq18#317:            - 27 I1 - 2 y2,1 - 9 y3,1 - 10 y4,1 - 6 y5,1 - 9 y6,1
                       - 3 y7,1 - 7 y8,1 - 6 y9,1 - 9 y10,1 + C1 >= 0
 _Eq18#318:            - 10 y1,2 - 29 I2 - 2 y3,2 - 2 y4,2 - 6 y5,2 - 6 y6,2
                       - 4 y7,2 - 5 y8,2 - 2 y9,2 - 7 y10,2 + C2 >= 0
 _Eq18#319:            - 9 y1,3 - 6 y2,3 - 15 I3 - 2 y4,3 - 8 y5,3 - 5 y6,3
                       - 9 y7,3 - 8 y8,3 - 3 y9,3 - 3 y10,3 + C3 >= 0
 _Eq18#320:            - 6 y1,4 - 9 y2,4 - 7 y3,4 - 8 I4 - 6 y5,4 - 6 y6,4
                       - 2 y7,4 - 6 y8,4 - 10 y9,4 - 4 y10,4 + C4 >= 0
 _Eq18#321:            - 3 y1,5 - 7 y2,5 - 6 y3,5 - 10 y4,5 - 19 I5 - 2 y6,5
                       - 9 y7,5 - 4 y8,5 - 2 y9,5 - 7 y10,5 + C5 >= 0
 _Eq18#322:            - 7 y1,6 - 7 y2,6 - 5 y3,6 - 7 y4,6 - 5 y5,6 - 16 I6
                       - 7 y7,6 - 3 y8,6 - 9 y9,6 - 7 y10,6 + C6 >= 0
 _Eq18#323:            - 3 y1,7 - 5 y2,7 - 4 y3,7 - 5 y4,7 - 7 y5,7 - 7 y6,7
                       - 17 I7 - 3 y8,7 - 3 y9,7 - 2 y10,7 + C7 >= 0
 _Eq18#324:            - 6 y1,8 - 10 y2,8 - 9 y3,8 - 10 y4,8 - 9 y5,8 - 2 y6,8
                       - 9 y7,8 - 9 I8 - 10 y9,8 - 3 y10,8 + C8 >= 0
 _Eq18#325:            - 7 y1,9 - 2 y2,9 - 7 y3,9 - 5 y4,9 - 10 y5,9 - 7 y6,9
                       - 3 y7,9 - 6 y8,9 - 9 I9 - 2 y10,9 + C9 >= 0
 _Eq18#326:            - 2 y1,10 - 9 y2,10 - 3 y3,10 - 6 y4,10 - 9 y5,10
                       - 10 y6,10 - 4 y7,10 - 4 y8,10 - 7 y9,10 - 8 I10 + C10
                       >= 0
Bounds
 0 <= R10 <= 100000000
 0 <= R9 <= 100000000
 0 <= R8 <= 100000000
 0 <= R7 <= 100000000
 0 <= R6 <= 100000000
 0 <= R5 <= 100000000
 0 <= R4 <= 100000000
 0 <= R3 <= 100000000
 0 <= R2 <= 100000000
 0 <= R1 <= 100000000
 0 <= I0 <= 1
 0 <= y0,11 <= 1
 0 <= y0,10 <= 1
 0 <= y0,9 <= 1
 0 <= y0,8 <= 1
 0 <= y0,7 <= 1
 0 <= y0,6 <= 1
 0 <= y0,5 <= 1
 0 <= y0,4 <= 1
 0 <= y0,3 <= 1
 0 <= y0,2 <= 1
 0 <= y0,1 <= 1
 0 <= I1 <= 1
 0 <= y1,11 <= 1
 0 <= y1,10 <= 1
 0 <= y1,9 <= 1
 0 <= y1,8 <= 1
 0 <= y1,7 <= 1
 0 <= y1,6 <= 1
 0 <= y1,5 <= 1
 0 <= y1,4 <= 1
 0 <= y1,3 <= 1
 0 <= y1,2 <= 1
 0 <= I2 <= 1
 0 <= y2,11 <= 1
 0 <= y2,10 <= 1
 0 <= y2,9 <= 1
 0 <= y2,8 <= 1
 0 <= y2,7 <= 1
 0 <= y2,6 <= 1
 0 <= y2,5 <= 1
 0 <= y2,4 <= 1
 0 <= y2,3 <= 1
 0 <= y2,1 <= 1
 0 <= I3 <= 1
 0 <= y3,11 <= 1
 0 <= y3,10 <= 1
 0 <= y3,9 <= 1
 0 <= y3,8 <= 1
 0 <= y3,7 <= 1
 0 <= y3,6 <= 1
 0 <= y3,5 <= 1
 0 <= y3,4 <= 1
 0 <= y3,2 <= 1
 0 <= y3,1 <= 1
 0 <= I4 <= 1
 0 <= y4,11 <= 1
 0 <= y4,10 <= 1
 0 <= y4,9 <= 1
 0 <= y4,8 <= 1
 0 <= y4,7 <= 1
 0 <= y4,6 <= 1
 0 <= y4,5 <= 1
 0 <= y4,3 <= 1
 0 <= y4,2 <= 1
 0 <= y4,1 <= 1
 0 <= I5 <= 1
 0 <= y5,11 <= 1
 0 <= y5,10 <= 1
 0 <= y5,9 <= 1
 0 <= y5,8 <= 1
 0 <= y5,7 <= 1
 0 <= y5,6 <= 1
 0 <= y5,4 <= 1
 0 <= y5,3 <= 1
 0 <= y5,2 <= 1
 0 <= y5,1 <= 1
 0 <= I6 <= 1
 0 <= y6,11 <= 1
 0 <= y6,10 <= 1
 0 <= y6,9 <= 1
 0 <= y6,8 <= 1
 0 <= y6,7 <= 1
 0 <= y6,5 <= 1
 0 <= y6,4 <= 1
 0 <= y6,3 <= 1
 0 <= y6,2 <= 1
 0 <= y6,1 <= 1
 0 <= I7 <= 1
 0 <= y7,11 <= 1
 0 <= y7,10 <= 1
 0 <= y7,9 <= 1
 0 <= y7,8 <= 1
 0 <= y7,6 <= 1
 0 <= y7,5 <= 1
 0 <= y7,4 <= 1
 0 <= y7,3 <= 1
 0 <= y7,2 <= 1
 0 <= y7,1 <= 1
 0 <= I8 <= 1
 0 <= y8,11 <= 1
 0 <= y8,10 <= 1
 0 <= y8,9 <= 1
 0 <= y8,7 <= 1
 0 <= y8,6 <= 1
 0 <= y8,5 <= 1
 0 <= y8,4 <= 1
 0 <= y8,3 <= 1
 0 <= y8,2 <= 1
 0 <= y8,1 <= 1
 0 <= I9 <= 1
 0 <= y9,11 <= 1
 0 <= y9,10 <= 1
 0 <= y9,8 <= 1
 0 <= y9,7 <= 1
 0 <= y9,6 <= 1
 0 <= y9,5 <= 1
 0 <= y9,4 <= 1
 0 <= y9,3 <= 1
 0 <= y9,2 <= 1
 0 <= y9,1 <= 1
 0 <= I10 <= 1
 0 <= y10,11 <= 1
 0 <= y10,9 <= 1
 0 <= y10,8 <= 1
 0 <= y10,7 <= 1
 0 <= y10,6 <= 1
 0 <= y10,5 <= 1
 0 <= y10,4 <= 1
 0 <= y10,3 <= 1
 0 <= y10,2 <= 1
 0 <= y10,1 <= 1
 0 <= I11 <= 1
 0 <= C1 <= 100000000
 0 <= C0 <= 100000000
 0 <= C2 <= 100000000
 0 <= C3 <= 100000000
 0 <= C4 <= 100000000
 0 <= C5 <= 100000000
 0 <= C6 <= 100000000
 0 <= C7 <= 100000000
 0 <= C8 <= 100000000
 0 <= C9 <= 100000000
 0 <= C10 <= 100000000
 0 <= C11 <= 100000000
 0 <= T0 <= 100000000
 0 <= T1 <= 100000000
 0 <= T2 <= 100000000
 0 <= T3 <= 100000000
 0 <= T4 <= 100000000
 0 <= T5 <= 100000000
 0 <= T6 <= 100000000
 0 <= T7 <= 100000000
 0 <= T8 <= 100000000
 0 <= T9 <= 100000000
 0 <= T10 <= 100000000
 0 <= T11 <= 100000000
Generals
 I0  y0,11  y0,10  y0,9  y0,8  y0,7  y0,6  y0,5  y0,4  y0,3  y0,2  y0,1  I1 
 y1,11  y1,10  y1,9  y1,8  y1,7  y1,6  y1,5  y1,4  y1,3  y1,2  I2  y2,11 
 y2,10  y2,9  y2,8  y2,7  y2,6  y2,5  y2,4  y2,3  y2,1  I3  y3,11  y3,10  y3,9 
 y3,8  y3,7  y3,6  y3,5  y3,4  y3,2  y3,1  I4  y4,11  y4,10  y4,9  y4,8  y4,7 
 y4,6  y4,5  y4,3  y4,2  y4,1  I5  y5,11  y5,10  y5,9  y5,8  y5,7  y5,6  y5,4 
 y5,3  y5,2  y5,1  I6  y6,11  y6,10  y6,9  y6,8  y6,7  y6,5  y6,4  y6,3  y6,2 
 y6,1  I7  y7,11  y7,10  y7,9  y7,8  y7,6  y7,5  y7,4  y7,3  y7,2  y7,1  I8 
 y8,11  y8,10  y8,9  y8,7  y8,6  y8,5  y8,4  y8,3  y8,2  y8,1  I9  y9,11 
 y9,10  y9,8  y9,7  y9,6  y9,5  y9,4  y9,3  y9,2  y9,1  I10  y10,11  y10,9 
 y10,8  y10,7  y10,6  y10,5  y10,4  y10,3  y10,2  y10,1  I11 
End
